row=7;
column=7;
Board=[|5,2,0,0,4,0,0|0,0,0,4,0,5,6|6,3,5,1,0,7,0|0,0,0,0,0,4,0|4,0,7,0,1,0,0|3,0,4,5,7,1,2|7,0,0,2,0,0,1|];
OE=[|1,0,1,1,0,0,1|1,1,0,0,1,1,0|0,1,1,1,0,1,0|0,1,1,1,0,0,1|0,1,1,0,1,0,1|1,0,0,1,1,1,0|1,0,0,0,1,1,1|];
